n=4;
row=8;
column=8;
Board=[|4,0,0,0,0,0,0,2|0,4,3,0,0,3,0,4|0,2,4,3,0,1,0,1|3,1,2,0,1,0,2,0|0,0,0,2,0,3,0,4|1,4,3,0,0,2,4,0|0,1,0,0,2,4,0,3|0,2,1,4,3,0,4,1|];
Region=[|1,1,1,1,2,2,2,2|3,3,3,3,4,4,4,4|5,6,7,8,9,10,11,12|5,6,7,8,9,10,11,12|5,6,7,8,9,10,11,12|5,6,7,8,9,10,11,12|13,13,13,13,14,14,14,14|15,15,15,15,16,16,16,16|];
